data/solutions/planning/wellformed/hard/weighting/wellformed_hard_instance45_gurobi.sol
Elapsed time: 11.48
Nodes explored: 2991
Nodes left: 1598
Relative gap: 0.001
Upper bound: 1097054520.0
Lower bound: 1097038137
C[0]=33481.0
C[1]=33480.0
C[2]=33480.0
C[3]=33480.0
C[4]=33480.0
C[5]=33479.0
C[6]=33479.0
C[7]=33479.0
C[8]=33479.0
C[9]=33479.0
C[10]=33479.0
C[11]=33479.0
C[12]=33479.0
C[13]=33479.0
C[14]=33478.0
y[0]=12
y[1]=8
y[2]=5
y[3]=1
y[4]=7
y[5]=9
y[6]=3
y[7]=10
y[8]=7
y[9]=3
y[10]=2
y[11]=2
y[12]=2
y[13]=6
y[14]=5
y[15]=1
y[16]=9
y[17]=1
y[18]=1
y[19]=1
y[20]=1
y[21]=1
y[22]=13
y[23]=10
y[24]=0
y[25]=0
y[26]=13
y[27]=5
y[28]=14
y[29]=13
y[30]=1
y[31]=1
y[32]=7
y[33]=4
y[34]=1
y[35]=1
y[36]=1
y[37]=2
y[38]=7
y[39]=12
y[40]=6
y[41]=1
y[42]=1
y[43]=1
y[44]=14
y[45]=13
y[46]=5
y[47]=1
y[48]=1
y[49]=7
y[50]=2
y[51]=9
y[52]=7
y[53]=1
y[54]=1
y[55]=0
y[56]=4
y[57]=11
y[58]=0
y[59]=1
y[60]=4
y[61]=1
y[62]=10
y[63]=4
y[64]=8
y[65]=1
y[66]=2
y[67]=7
y[68]=2
y[69]=1
y[70]=1
y[71]=11
y[72]=11
y[73]=7
y[74]=3
y[75]=13
y[76]=4
y[77]=2
y[78]=9
y[79]=13
y[80]=14
y[81]=1
y[82]=8
y[83]=0
y[84]=0
y[85]=8
y[86]=6
y[87]=11
y[88]=12
y[89]=1
y[90]=7
y[91]=0
y[92]=8
y[93]=1
y[94]=13
y[95]=5
y[96]=0
y[97]=0
y[98]=12
y[99]=12
y[100]=2
y[101]=0
y[102]=7
y[103]=14
y[104]=2
y[105]=8
y[106]=11
y[107]=8
y[108]=5
y[109]=2
y[110]=7
y[111]=12
y[112]=10
y[113]=6
y[114]=5
y[115]=11
y[116]=6
y[117]=2
y[118]=3
y[119]=3
y[120]=13
y[121]=0
y[122]=5
y[123]=13
y[124]=9
y[125]=3
y[126]=11
y[127]=13
y[128]=11
y[129]=6
y[130]=14
y[131]=11
y[132]=3
y[133]=12
y[134]=6
y[135]=9
y[136]=8
y[137]=10
y[138]=14
y[139]=9
y[140]=7
y[141]=4
y[142]=2
y[143]=10
y[144]=1
y[145]=6
y[146]=0
y[147]=8
y[148]=3
y[149]=1
y[150]=3
y[151]=12
y[152]=10
y[153]=6
y[154]=2
y[155]=10
y[156]=1
y[157]=3
y[158]=8
y[159]=1
y[160]=6
y[161]=7
y[162]=7
y[163]=3
y[164]=0
y[165]=4
y[166]=4
y[167]=13
y[168]=3
y[169]=11
y[170]=10
y[171]=13
y[172]=12
y[173]=2
y[174]=14
y[175]=2
y[176]=10
y[177]=2
y[178]=8
y[179]=4
y[180]=6
y[181]=5
y[182]=8
y[183]=13
y[184]=10
y[185]=12
y[186]=12
y[187]=1
y[188]=3
y[189]=8
y[190]=13
y[191]=7
y[192]=12
y[193]=0
y[194]=0
y[195]=13
y[196]=12
y[197]=12
y[198]=2
y[199]=14
y[200]=13
y[201]=8
y[202]=11
y[203]=12
y[204]=0
y[205]=14
y[206]=6
y[207]=2
y[208]=7
y[209]=5
y[210]=3
y[211]=6
y[212]=8
y[213]=10
y[214]=4
y[215]=3
y[216]=10
y[217]=1
y[218]=1
y[219]=3
y[220]=1
y[221]=1
y[222]=8
y[223]=1
y[224]=2
y[225]=12
y[226]=14
y[227]=11
y[228]=14
y[229]=13
y[230]=14
y[231]=6
y[232]=13
y[233]=10
y[234]=13
y[235]=7
y[236]=12
y[237]=7
y[238]=9
y[239]=3
y[240]=4
y[241]=13
y[242]=5
y[243]=14
y[244]=14
y[245]=12
y[246]=6
y[247]=0
y[248]=9
y[249]=8
y[250]=14
y[251]=10
y[252]=9
y[253]=14
y[254]=0
y[255]=5
y[256]=4
y[257]=11
y[258]=4
y[259]=12
y[260]=7
y[261]=3
y[262]=5
y[263]=11
y[264]=8
y[265]=6
y[266]=9
y[267]=11
y[268]=5
y[269]=2
y[270]=10
y[271]=3
y[272]=10
y[273]=12
y[274]=5
y[275]=6
y[276]=8
y[277]=3
y[278]=10
y[279]=4
y[280]=13
y[281]=13
y[282]=7
y[283]=3
y[284]=5
y[285]=3
y[286]=2
y[287]=6
y[288]=1
y[289]=5
y[290]=9
y[291]=9
y[292]=12
y[293]=4
y[294]=4
y[295]=4
y[296]=7
y[297]=6
y[298]=7
y[299]=2
y[300]=7
y[301]=10
y[302]=9
y[303]=14
y[304]=3
y[305]=2
y[306]=7
y[307]=10
y[308]=1
y[309]=12
y[310]=4
y[311]=4
y[312]=14
y[313]=3
y[314]=4
y[315]=14
y[316]=13
y[317]=3
y[318]=11
y[319]=13
y[320]=13
y[321]=2
y[322]=5
y[323]=10
y[324]=8
y[325]=14
y[326]=4
y[327]=5
y[328]=3
y[329]=11
y[330]=6
y[331]=14
y[332]=14
y[333]=0
y[334]=5
y[335]=9
y[336]=10
y[337]=9
y[338]=10
y[339]=3
y[340]=1
y[341]=6
y[342]=9
y[343]=4
y[344]=4
y[345]=3
y[346]=6
y[347]=11
y[348]=11
y[349]=0
y[350]=1
y[351]=7
y[352]=13
y[353]=5
y[354]=0
y[355]=1
y[356]=14
y[357]=13
y[358]=9
y[359]=11
y[360]=10
y[361]=13
y[362]=13
y[363]=6
y[364]=0
y[365]=8
y[366]=9
y[367]=3
y[368]=8
y[369]=12
y[370]=8
y[371]=13
y[372]=1
y[373]=10
y[374]=8
y[375]=9
y[376]=2
y[377]=3
y[378]=4
y[379]=11
y[380]=5
y[381]=2
y[382]=14
y[383]=1
y[384]=1
y[385]=11
y[386]=7
y[387]=7
y[388]=4
y[389]=0
y[390]=12
y[391]=5
y[392]=4
y[393]=6
y[394]=11
y[395]=4
y[396]=10
y[397]=6
y[398]=0
y[399]=4
y[400]=3
y[401]=6
y[402]=14
y[403]=12
y[404]=3
y[405]=0
y[406]=6
y[407]=13
y[408]=4
y[409]=4
y[410]=2
y[411]=2
y[412]=6
y[413]=3
y[414]=9
y[415]=5
y[416]=3
y[417]=5
y[418]=8
y[419]=12
y[420]=7
y[421]=5
y[422]=4
y[423]=11
y[424]=7
y[425]=12
y[426]=14
y[427]=11
y[428]=12
y[429]=9
y[430]=12
y[431]=13
y[432]=0
y[433]=0
y[434]=11
y[435]=11
y[436]=4
y[437]=1
y[438]=3
y[439]=1
y[440]=12
y[441]=0
y[442]=9
y[443]=4
y[444]=9
y[445]=9
y[446]=1
y[447]=9
y[448]=12
y[449]=8
y[450]=13
y[451]=11
y[452]=6
y[453]=11
y[454]=1
y[455]=5
y[456]=2
y[457]=14
y[458]=14
y[459]=4
y[460]=11
y[461]=4
y[462]=9
y[463]=11
y[464]=12
y[465]=13
y[466]=11
y[467]=9
y[468]=2
y[469]=5
y[470]=6
y[471]=14
y[472]=5
y[473]=1
y[474]=8
y[475]=3
y[476]=4
y[477]=11
y[478]=9
y[479]=14
y[480]=1
y[481]=1
y[482]=8
y[483]=9
y[484]=8
y[485]=8
y[486]=8
y[487]=13
y[488]=5
y[489]=13
y[490]=1
y[491]=10
y[492]=2
y[493]=7
y[494]=13
y[495]=8
y[496]=8
y[497]=1
y[498]=3
y[499]=8
